NAME: instance_405
TYPE: TSP
DIMENSION: 20
EDGE_WEIGHT_TYPE: EUC_2D
NODE_COORD_SECTION
0 43.11 89.28
1 48.74 80.96
2 19.48 59.10
3 75.50 41.40
4 64.36 22.38
5 42.89 16.42
6 36.34 59.75
7 88.79 25.79
8 39.68 22.53
9 7.11 73.34
10 54.51 17.82
11 69.41 1.68
12 58.01 34.87
13 56.64 60.37
14 41.85 92.72
15 20.41 11.44
16 51.25 35.05
17 99.46 39.31
18 36.58 11.50
19 38.63 86.40
EOF
